========================================================== 
File name: C:\DEGR\assets\definitions\MSRCPSP_Gen\1000_40_1024_5_C.def
Creation date: Sat May 06 09:21:02 CEST 2023
Website: http://imopse.ii.pwr.edu.pl/ 
Reference: 
Myszkowski P. B., Skowronski M. E., Olech L., Oslizlo K., 
Hybrid Ant Colony Optimization in solving Multi-Skill Resource-Constrained Project Scheduling Problem, 
Soft Computing, DOI: DOI 10.1007/s00500-014-1455-x 
========================================================== 
General characteristics: 
Tasks: 1000
Resources: 40
Precedence relations: 1021
Number of skill types: 5
========================================================== 
ResourceID 	 Salary 	 Skills 
1	 	 	66.3	 	 Q1: 2 	  Q4: 2 	 
2	 	 	33.6	 	 Q4: 0 	 
3	 	 	81.7	 	 Q2: 0 	 
4	 	 	8.3	 	 Q3: 1 	 
5	 	 	12.2	 	 Q2: 2 	  Q3: 3 	  Q0: 3 	  Q1: 0 	 
6	 	 	75.0	 	 Q0: 2 	  Q3: 0 	 
7	 	 	10.9	 	 Q4: 2 	  Q2: 2 	  Q3: 1 	  Q1: 0 	 
8	 	 	5.8	 	 Q4: 2 	  Q2: 1 	 
9	 	 	77.4	 	 Q3: 1 	  Q4: 0 	  Q1: 0 	  Q2: 1 	 
10	 	 	64.1	 	 Q1: 1 	  Q3: 1 	 
11	 	 	55.0	 	 Q1: 2 	  Q4: 2 	  Q2: 2 	  Q3: 0 	 
12	 	 	39.3	 	 Q1: 3 	  Q2: 2 	 
13	 	 	6.2	 	 Q1: 3 	 
14	 	 	60.3	 	 Q2: 1 	  Q1: 2 	  Q4: 3 	  Q3: 1 	 
15	 	 	80.3	 	 Q4: 2 	  Q2: 1 	  Q1: 1 	  Q0: 2 	 
16	 	 	5.7	 	 Q1: 2 	  Q3: 2 	  Q4: 0 	  Q2: 0 	 
17	 	 	66.0	 	 Q4: 3 	 
18	 	 	68.6	 	 Q4: 2 	 
19	 	 	72.6	 	 Q1: 1 	 
20	 	 	65.1	 	 Q0: 2 	  Q3: 0 	 
21	 	 	64.6	 	 Q0: 0 	  Q4: 1 	  Q2: 1 	 
22	 	 	40.6	 	 Q1: 1 	  Q4: 3 	  Q2: 1 	  Q3: 3 	 
23	 	 	16.3	 	 Q3: 2 	  Q0: 3 	  Q2: 0 	 
24	 	 	67.9	 	 Q2: 1 	 
25	 	 	34.0	 	 Q3: 2 	  Q1: 3 	  Q0: 2 	 
26	 	 	34.3	 	 Q0: 1 	 
27	 	 	82.2	 	 Q0: 1 	 
28	 	 	60.8	 	 Q1: 1 	  Q2: 3 	 
29	 	 	70.7	 	 Q3: 0 	  Q2: 1 	  Q1: 1 	 
30	 	 	15.5	 	 Q4: 2 	  Q3: 2 	 
31	 	 	66.3	 	 Q0: 1 	  Q2: 1 	  Q3: 2 	  Q1: 2 	 
32	 	 	47.0	 	 Q4: 3 	  Q2: 2 	  Q3: 1 	 
33	 	 	70.9	 	 Q3: 0 	 
34	 	 	24.2	 	 Q2: 3 	  Q1: 1 	 
35	 	 	89.8	 	 Q0: 2 	  Q3: 0 	  Q1: 3 	 
36	 	 	29.1	 	 Q4: 0 	  Q2: 3 	  Q0: 3 	  Q1: 1 	 
37	 	 	59.7	 	 Q2: 2 	  Q0: 1 	 
38	 	 	41.5	 	 Q2: 0 	  Q3: 3 	 
39	 	 	61.6	 	 Q2: 3 	  Q4: 1 	  Q0: 2 	  Q3: 0 	 
40	 	 	61.8	 	 Q4: 0 	  Q0: 2 	  Q1: 2 	 
========================================================== 
TaskID 	 Duration 	 Skill 	 Predecessor IDs 
1	19	Q0:	3
2	36	Q4:	2
3	23	Q1:	0
4	21	Q3:	0	3
5	30	Q2:	0
6	39	Q4:	1
7	31	Q1:	0
8	16	Q0:	0
9	34	Q1:	2
10	37	Q0:	1
11	32	Q2:	0
12	21	Q2:	2
13	23	Q2:	2
14	15	Q4:	0
15	21	Q4:	2
16	21	Q0:	1
17	14	Q3:	2
18	13	Q2:	1
19	34	Q2:	3
20	22	Q4:	2
21	11	Q0:	1
22	22	Q4:	1
23	13	Q3:	3
24	17	Q1:	3
25	37	Q1:	1
26	15	Q3:	1
27	40	Q3:	3
28	13	Q0:	0
29	21	Q2:	3	6
30	37	Q4:	3
31	14	Q2:	0
32	35	Q1:	3	10
33	13	Q0:	0
34	28	Q4:	0
35	35	Q1:	2
36	14	Q2:	0
37	33	Q3:	1
38	21	Q1:	0
39	35	Q3:	3
40	12	Q1:	2	16
41	26	Q3:	2
42	24	Q3:	2
43	28	Q2:	2
44	27	Q2:	2
45	27	Q3:	1	22
46	39	Q3:	3
47	9	Q2:	0
48	18	Q3:	2
49	12	Q1:	3
50	11	Q4:	0
51	16	Q0:	2
52	24	Q2:	3	22
53	10	Q4:	2
54	37	Q2:	0
55	19	Q0:	3
56	35	Q1:	1	51
57	38	Q4:	1
58	11	Q3:	3
59	13	Q3:	3
60	35	Q3:	0
61	33	Q0:	3
62	12	Q2:	2
63	15	Q1:	3
64	11	Q3:	2
65	37	Q2:	2
66	23	Q3:	1
67	17	Q0:	1
68	37	Q3:	0
69	18	Q2:	1
70	19	Q2:	3	46
71	10	Q4:	1
72	35	Q3:	2
73	35	Q1:	3
74	40	Q1:	3
75	37	Q0:	3
76	12	Q0:	1
77	40	Q0:	1
78	27	Q4:	0
79	25	Q2:	2
80	28	Q1:	0
81	32	Q4:	1
82	28	Q3:	3	26
83	16	Q3:	0
84	15	Q2:	1	18
85	17	Q0:	2
86	27	Q0:	0
87	18	Q4:	1
88	31	Q4:	1	32
89	11	Q2:	3
90	24	Q4:	1
91	10	Q4:	2
92	16	Q3:	1
93	18	Q4:	1
94	11	Q3:	2
95	30	Q1:	1
96	14	Q2:	2	20
97	14	Q4:	1	33	4
98	16	Q3:	1	51
99	15	Q2:	3
100	39	Q2:	3
101	9	Q0:	2
102	16	Q2:	3	51
103	23	Q3:	2
104	19	Q3:	1
105	15	Q3:	1
106	31	Q3:	0
107	25	Q3:	1
108	11	Q1:	3
109	26	Q0:	0
110	34	Q1:	1
111	24	Q2:	0
112	25	Q4:	1
113	32	Q3:	1	67
114	16	Q4:	3
115	16	Q3:	2
116	36	Q3:	3
117	22	Q1:	3
118	36	Q2:	3
119	32	Q2:	0
120	14	Q4:	0
121	36	Q4:	2
122	36	Q4:	3
123	29	Q2:	0
124	17	Q3:	0
125	37	Q3:	3	96
126	40	Q3:	0
127	20	Q2:	0
128	24	Q3:	0
129	22	Q4:	3	112
130	34	Q4:	1	81
131	29	Q0:	0
132	30	Q2:	0
133	21	Q1:	0
134	15	Q2:	0
135	27	Q3:	1
136	37	Q0:	3
137	16	Q2:	1
138	35	Q0:	3
139	10	Q4:	1
140	11	Q4:	3
141	9	Q4:	1
142	28	Q3:	0
143	24	Q3:	2
144	30	Q1:	0	143	82
145	28	Q3:	1
146	40	Q0:	1
147	15	Q4:	1
148	25	Q0:	2	81
149	21	Q4:	1
150	26	Q4:	2
151	10	Q3:	0
152	11	Q0:	1
153	20	Q4:	2
154	16	Q0:	3	69
155	31	Q0:	3
156	11	Q0:	2
157	21	Q1:	2
158	23	Q3:	2
159	18	Q0:	1	106
160	35	Q3:	2
161	40	Q0:	1
162	19	Q0:	0	20
163	11	Q2:	1
164	25	Q4:	2
165	32	Q3:	0	27
166	10	Q4:	0	27	78
167	36	Q2:	1
168	11	Q0:	3	93
169	23	Q2:	0
170	26	Q1:	1
171	9	Q4:	3	123	126	155
172	20	Q3:	1
173	11	Q4:	1
174	16	Q2:	3
175	31	Q4:	0	84	70
176	28	Q4:	2
177	35	Q2:	3
178	32	Q1:	0
179	34	Q3:	0
180	26	Q4:	3
181	20	Q1:	1	179
182	11	Q2:	0	43	119
183	9	Q2:	3
184	27	Q4:	3	88	82
185	12	Q2:	0
186	20	Q0:	3
187	11	Q0:	2
188	18	Q2:	3
189	29	Q3:	2	180	154	76
190	24	Q0:	0
191	28	Q1:	2
192	36	Q2:	2
193	16	Q2:	1	186
194	15	Q4:	0	143
195	39	Q4:	1
196	36	Q0:	3	19
197	17	Q0:	2	120
198	32	Q2:	1
199	27	Q1:	2	160
200	26	Q3:	2
201	28	Q0:	3	73
202	10	Q0:	3
203	14	Q2:	1
204	40	Q1:	1	201
205	27	Q4:	3	25
206	10	Q3:	0
207	10	Q4:	1	83
208	15	Q2:	3
209	9	Q2:	1	150	193
210	15	Q2:	3	141
211	37	Q3:	0
212	21	Q2:	2
213	18	Q0:	0	148	31
214	14	Q0:	0
215	31	Q3:	1
216	19	Q1:	1	128
217	33	Q1:	0	155
218	9	Q2:	3
219	14	Q1:	1	217	165
220	17	Q3:	3	102
221	38	Q1:	3
222	28	Q1:	2
223	29	Q0:	0
224	28	Q4:	0
225	10	Q0:	1	31
226	32	Q1:	2
227	15	Q2:	2
228	9	Q4:	0
229	32	Q3:	2
230	16	Q3:	1	147
231	40	Q0:	1	73
232	16	Q3:	0	227	1
233	17	Q4:	0
234	13	Q0:	2	207
235	16	Q1:	2
236	17	Q0:	3	8	220	57
237	15	Q2:	0	51
238	35	Q3:	2
239	9	Q4:	2
240	24	Q3:	1
241	30	Q2:	2	111
242	38	Q3:	3	214
243	14	Q3:	0	160
244	30	Q1:	2
245	19	Q1:	2	128
246	32	Q2:	1
247	36	Q4:	2
248	34	Q2:	3
249	23	Q4:	0	181
250	32	Q2:	0	142
251	29	Q4:	1
252	32	Q2:	0
253	30	Q0:	0	209
254	18	Q3:	3
255	12	Q3:	2
256	24	Q4:	1
257	22	Q2:	2
258	23	Q4:	0	180	151
259	9	Q0:	0
260	17	Q0:	2	196
261	9	Q0:	0
262	19	Q0:	0
263	28	Q4:	2
264	39	Q3:	3
265	23	Q0:	3	135
266	39	Q3:	0	18
267	30	Q2:	2	175
268	29	Q4:	0
269	9	Q2:	1	14
270	20	Q1:	1	87	224
271	23	Q1:	2
272	27	Q0:	2
273	34	Q0:	2	143
274	24	Q1:	3	266
275	13	Q3:	1
276	24	Q3:	1	107
277	36	Q3:	2
278	33	Q0:	2
279	17	Q4:	3
280	34	Q2:	1	273
281	35	Q1:	1
282	25	Q1:	3
283	27	Q2:	3
284	34	Q2:	0	18
285	16	Q3:	3
286	26	Q4:	2
287	32	Q0:	3	163
288	24	Q4:	1
289	23	Q3:	0	40
290	23	Q2:	0
291	10	Q4:	1
292	20	Q2:	0
293	13	Q4:	3	95
294	34	Q1:	0	99
295	40	Q3:	1	182
296	10	Q0:	3
297	31	Q3:	1	269
298	38	Q4:	0	16
299	38	Q0:	0
300	27	Q3:	3
301	33	Q3:	3	134	184	19	87
302	11	Q4:	0	102
303	40	Q1:	0
304	9	Q0:	0	244
305	14	Q0:	3
306	14	Q4:	3
307	21	Q4:	2
308	37	Q4:	2
309	21	Q1:	0
310	32	Q2:	2
311	26	Q3:	0
312	20	Q4:	3
313	14	Q3:	1	231
314	40	Q3:	0
315	30	Q2:	2	104
316	35	Q1:	2
317	15	Q2:	1
318	33	Q3:	2
319	11	Q0:	3	55
320	22	Q2:	2
321	27	Q1:	0
322	12	Q2:	3	190	86
323	29	Q3:	3
324	15	Q0:	3
325	26	Q4:	0
326	10	Q4:	3
327	18	Q2:	0	91
328	18	Q0:	3
329	19	Q4:	3	76
330	40	Q0:	3	12	150
331	34	Q4:	3	80
332	34	Q1:	0
333	8	Q4:	0
334	13	Q4:	1	303
335	9	Q2:	3
336	21	Q1:	1
337	25	Q3:	0	257
338	30	Q0:	2
339	39	Q4:	3	168	105	62	77
340	36	Q0:	0
341	12	Q4:	2
342	16	Q4:	0	67	39
343	12	Q4:	0
344	37	Q2:	0	187
345	31	Q1:	3
346	35	Q1:	3
347	32	Q4:	0	140
348	11	Q2:	0
349	32	Q4:	1	141
350	38	Q0:	2	83
351	24	Q1:	3
352	30	Q4:	0	144
353	9	Q1:	1	172
354	39	Q2:	3	14	257
355	23	Q2:	1
356	34	Q2:	3
357	24	Q2:	0
358	26	Q2:	0	157
359	32	Q3:	2
360	15	Q0:	3	1	160
361	38	Q1:	3	25
362	12	Q3:	2
363	12	Q1:	2	166
364	36	Q4:	1	182	340
365	28	Q3:	0	161	212
366	31	Q2:	3	6
367	40	Q4:	3	131
368	38	Q2:	1	152
369	12	Q0:	0
370	15	Q4:	2	106
371	9	Q4:	0	160	255
372	16	Q0:	1	368
373	17	Q0:	1
374	33	Q0:	2	152
375	23	Q1:	3	197
376	20	Q3:	3
377	16	Q0:	3	181	371
378	15	Q2:	3
379	25	Q3:	3	25
380	12	Q0:	3	333
381	14	Q2:	0
382	39	Q2:	0
383	24	Q3:	2
384	13	Q2:	1
385	17	Q4:	3	4
386	36	Q2:	0
387	17	Q1:	3	29	299
388	21	Q4:	3
389	32	Q1:	2	241
390	9	Q1:	1
391	32	Q2:	0	168	208
392	23	Q3:	0	136
393	10	Q0:	0	293
394	9	Q2:	2
395	25	Q2:	2
396	36	Q2:	1
397	29	Q4:	2
398	20	Q0:	1
399	28	Q1:	0	240
400	29	Q3:	0	99
401	26	Q1:	3
402	29	Q3:	2
403	40	Q4:	3	314
404	10	Q1:	3
405	16	Q0:	2	185
406	32	Q3:	1	4
407	26	Q2:	0	12
408	10	Q4:	1	384
409	14	Q3:	0
410	35	Q2:	0	81
411	29	Q4:	2
412	32	Q2:	0
413	11	Q3:	1	47
414	21	Q3:	3
415	17	Q2:	3	150
416	19	Q3:	2
417	20	Q2:	1
418	25	Q3:	0	25	316
419	11	Q2:	1
420	38	Q1:	2	323	194
421	32	Q3:	0	61
422	24	Q2:	3
423	25	Q4:	3
424	28	Q3:	0
425	19	Q3:	1	414	51
426	11	Q0:	2	220	171
427	31	Q1:	3
428	21	Q4:	3
429	22	Q1:	0
430	10	Q4:	0
431	34	Q0:	3	51
432	28	Q0:	1	251
433	40	Q1:	3	85
434	17	Q1:	0	324
435	28	Q0:	1	183	351
436	10	Q4:	1	345	190
437	23	Q1:	1	412
438	37	Q2:	3	247
439	31	Q3:	3	206	265
440	18	Q2:	1	91	142	56	83
441	20	Q2:	1	371	145	390
442	37	Q1:	3
443	39	Q1:	3	236
444	14	Q0:	0
445	18	Q2:	1
446	14	Q3:	1
447	27	Q4:	3	39	319	416
448	30	Q2:	2	129	375	409
449	33	Q1:	3	201	345
450	39	Q2:	2
451	24	Q0:	0
452	33	Q3:	2
453	26	Q1:	3	178
454	31	Q3:	1
455	14	Q2:	1	208	268
456	8	Q1:	1	235
457	28	Q4:	3
458	30	Q3:	1
459	34	Q0:	1
460	36	Q3:	0	217
461	29	Q1:	1	365
462	35	Q3:	1	278	35
463	19	Q1:	2	426
464	21	Q2:	3	93
465	14	Q3:	2	22
466	24	Q2:	0
467	20	Q3:	2
468	30	Q3:	2	66
469	35	Q0:	3	450	219
470	33	Q1:	2	439	99
471	22	Q1:	1
472	27	Q3:	1	46
473	35	Q4:	0
474	25	Q0:	0	71	57	356
475	10	Q2:	0	174	354
476	21	Q4:	2
477	19	Q1:	0	88	245	273
478	39	Q4:	3	73	453
479	29	Q2:	0
480	20	Q2:	1
481	11	Q0:	2	463
482	28	Q4:	3	37
483	13	Q2:	0	407
484	25	Q0:	2	361
485	25	Q3:	1	338
486	10	Q0:	0	39	434
487	25	Q2:	3
488	12	Q3:	2
489	27	Q4:	0	223
490	27	Q3:	0	481
491	40	Q0:	0	447
492	38	Q2:	1
493	12	Q0:	1	387
494	21	Q1:	0	358	430	465	468
495	17	Q1:	1
496	39	Q1:	1	142	486
497	18	Q0:	1	314
498	33	Q4:	2	232	194	28	50	443
499	20	Q4:	1	266	277	463	17
500	35	Q1:	0	187
501	18	Q4:	2	172
502	31	Q0:	0	486
503	34	Q3:	3	311
504	37	Q0:	1	492	101
505	12	Q2:	3
506	20	Q4:	0
507	38	Q2:	1	118	430
508	30	Q0:	1	141	309	417
509	12	Q2:	2
510	17	Q4:	0
511	27	Q0:	1	426	78
512	13	Q4:	0
513	23	Q3:	2	403
514	21	Q3:	3	193
515	31	Q1:	2	11
516	19	Q4:	3	364	445
517	40	Q1:	3
518	16	Q4:	2	358	425
519	29	Q3:	0	80	367
520	38	Q2:	3	518
521	22	Q2:	0
522	33	Q0:	3	265
523	22	Q0:	1
524	16	Q2:	0	125
525	20	Q1:	1	407
526	21	Q4:	1
527	12	Q4:	2	138
528	27	Q2:	2	457
529	29	Q2:	1
530	11	Q0:	3
531	12	Q4:	1	392	250
532	23	Q2:	2	429	229
533	33	Q4:	0
534	30	Q0:	2
535	33	Q3:	3
536	20	Q3:	2	291	382
537	15	Q2:	0	233
538	21	Q3:	3	270
539	13	Q0:	0	453	5	357	409	210
540	27	Q4:	3	376	73	160
541	35	Q4:	2	198
542	19	Q2:	1
543	37	Q1:	2
544	23	Q2:	0	52	169	504
545	32	Q4:	3	309
546	14	Q3:	2
547	37	Q0:	3	49	46	109
548	18	Q2:	1	38
549	12	Q4:	0	170	370
550	30	Q0:	1	3
551	22	Q0:	1
552	27	Q2:	3	277	471
553	35	Q0:	1	431	125	345
554	17	Q3:	3	518
555	20	Q3:	3	394
556	26	Q4:	2
557	32	Q3:	1
558	19	Q3:	2	383	258
559	34	Q3:	3
560	17	Q1:	0
561	29	Q0:	0
562	19	Q2:	3	159	406
563	34	Q0:	2	384
564	38	Q1:	3
565	11	Q0:	3	546
566	35	Q3:	2	76	560
567	13	Q2:	1	509
568	9	Q3:	0
569	36	Q1:	1
570	10	Q1:	3	365	120
571	9	Q3:	2	456	462
572	9	Q3:	3
573	13	Q3:	3	172	221
574	38	Q2:	0
575	16	Q0:	2
576	36	Q0:	3
577	29	Q3:	2
578	21	Q1:	3
579	33	Q3:	2	550
580	10	Q4:	3	82	357	522	550
581	19	Q0:	0	204	329
582	35	Q4:	0	246
583	23	Q1:	1
584	26	Q2:	2	55
585	17	Q1:	0	305
586	26	Q1:	3	206	402
587	25	Q0:	0	444
588	32	Q1:	0	533	168	70	208
589	34	Q2:	3	229
590	23	Q4:	0	64
591	18	Q0:	2	231	351
592	11	Q1:	1
593	18	Q0:	3	253
594	16	Q4:	3
595	32	Q2:	1
596	39	Q1:	2	84
597	25	Q0:	2
598	37	Q1:	0
599	18	Q2:	0
600	37	Q3:	0	524	541
601	33	Q2:	3
602	29	Q1:	2	118	245
603	12	Q1:	0	87	51	249
604	27	Q4:	2	359
605	25	Q3:	2	600
606	19	Q4:	2	465	534
607	25	Q1:	1	162
608	31	Q2:	0
609	11	Q2:	0	34	38	379
610	9	Q2:	3	104	209
611	19	Q0:	1
612	35	Q1:	0	451
613	27	Q1:	3	324
614	39	Q2:	2
615	11	Q2:	2
616	26	Q4:	2	157
617	28	Q2:	1	451	145	101
618	36	Q3:	2	419
619	34	Q3:	0	458	236
620	26	Q1:	2
621	29	Q3:	3	514	229
622	11	Q1:	0	70
623	10	Q3:	2	308	479
624	10	Q2:	1	55	559
625	29	Q3:	1	294
626	19	Q2:	1
627	13	Q2:	3	176	266	462
628	26	Q4:	0	384
629	15	Q3:	2	544
630	12	Q4:	0	3	605
631	29	Q4:	3	191	622
632	22	Q2:	2	163
633	14	Q0:	3	24	157
634	37	Q2:	0	332
635	11	Q1:	0
636	17	Q4:	1
637	40	Q2:	0	604	402	476
638	10	Q4:	2	176
639	17	Q1:	2	235
640	40	Q4:	1	134
641	39	Q3:	1	302	608
642	30	Q0:	3	278	112
643	21	Q3:	2	223
644	28	Q2:	3	290
645	14	Q3:	1	427	571
646	10	Q1:	0	553	619
647	36	Q4:	3	542
648	19	Q4:	1	262	338	222
649	28	Q2:	2	121
650	11	Q0:	2	328	542	551
651	12	Q3:	1	576
652	14	Q2:	1	168	182
653	37	Q1:	2	100
654	12	Q0:	1	75	104	277	136
655	15	Q1:	0	628
656	16	Q4:	1	471
657	30	Q2:	0
658	14	Q1:	1
659	40	Q4:	3
660	23	Q3:	3	506
661	12	Q2:	3	622
662	19	Q2:	1
663	10	Q4:	3	456
664	40	Q1:	3
665	40	Q4:	0	334	56
666	33	Q2:	1
667	30	Q2:	3	321	142
668	16	Q3:	1	374	562
669	38	Q2:	2	639
670	11	Q3:	1
671	9	Q3:	0
672	26	Q1:	0
673	40	Q3:	0	120
674	13	Q4:	0
675	30	Q1:	2	196	622
676	22	Q3:	1	598
677	33	Q0:	2	177
678	10	Q4:	2	676
679	11	Q2:	3
680	12	Q4:	2
681	13	Q3:	2	644	250	284
682	27	Q2:	3
683	27	Q1:	0	433
684	17	Q0:	2
685	27	Q3:	1	629
686	34	Q4:	3	400	304
687	22	Q4:	3	650
688	37	Q3:	0
689	16	Q0:	1
690	12	Q3:	3	416	140
691	14	Q3:	0
692	26	Q0:	0	249	209	196	14
693	11	Q4:	1	278	206
694	13	Q4:	2	437	391
695	22	Q3:	1
696	32	Q4:	2	652
697	29	Q1:	3
698	28	Q0:	2	679	320
699	38	Q0:	0	208
700	40	Q2:	1	46	437
701	20	Q2:	0	502
702	12	Q0:	0	171	557
703	15	Q0:	2	579	351
704	23	Q4:	0
705	12	Q1:	3	455	692	161
706	36	Q0:	1
707	40	Q3:	0
708	16	Q1:	3	540
709	26	Q1:	3
710	15	Q4:	3	692
711	30	Q4:	1	123	468
712	32	Q3:	2	194	451
713	20	Q3:	3
714	26	Q1:	2	265	614
715	34	Q2:	1	524	588	55
716	19	Q0:	1	643
717	24	Q4:	1
718	31	Q1:	1
719	32	Q3:	0
720	9	Q2:	3	319
721	27	Q2:	0	199
722	34	Q0:	3	216	641	229
723	15	Q3:	3	540
724	35	Q4:	0
725	16	Q4:	0	418
726	32	Q0:	0	369	141	492
727	39	Q4:	2	507	685
728	31	Q2:	3	102
729	28	Q3:	2	401
730	28	Q3:	0	691
731	32	Q3:	3
732	33	Q1:	3
733	18	Q4:	1	17	727	659	56
734	24	Q2:	1	361	295
735	18	Q1:	0	582	209	616	531
736	30	Q0:	0	42	242	144
737	29	Q4:	3	232	678
738	11	Q2:	2
739	10	Q3:	1	413	576
740	34	Q0:	3	735	506	24
741	29	Q1:	0	79	94	241	313	133
742	39	Q2:	1	596	235	445
743	18	Q2:	0	589
744	35	Q4:	0	138	268	175
745	17	Q2:	2
746	23	Q3:	2
747	30	Q2:	2	167	600	315
748	38	Q0:	0	373
749	31	Q1:	0	303	297
750	9	Q1:	1	538	226
751	32	Q0:	1
752	15	Q3:	3
753	30	Q4:	2	494	521
754	22	Q2:	2	501	196
755	28	Q1:	1
756	17	Q1:	3
757	24	Q4:	1	260	479	556	666
758	22	Q0:	3	178
759	15	Q4:	1	271	111
760	14	Q1:	3	174	32	395
761	9	Q1:	0	66	726	263	481	381	214
762	13	Q4:	2	493	169	318
763	31	Q3:	3	266	13
764	11	Q0:	0	52	22
765	18	Q1:	2	201
766	27	Q3:	1	340	26	664	322
767	36	Q4:	1	766	662
768	37	Q2:	2	538	601	121	285
769	17	Q0:	1	155	235
770	33	Q3:	2	267
771	11	Q3:	3	490	446
772	32	Q1:	0	250
773	38	Q1:	2	354	71
774	31	Q0:	0	590	331
775	32	Q4:	2	505	678
776	13	Q1:	1	170	701
777	20	Q4:	3	524	201	44	736
778	31	Q4:	2	90
779	15	Q2:	0	235	176
780	34	Q3:	3	375
781	20	Q4:	3	607
782	9	Q1:	0	647	394	272	635
783	40	Q2:	2	514	568
784	28	Q0:	0	629	228
785	15	Q2:	3
786	9	Q1:	1	604	307	682
787	12	Q2:	2	564	673	785
788	18	Q2:	0
789	23	Q3:	2	538	342
790	40	Q1:	2	498
791	26	Q0:	0	61	172
792	13	Q2:	1
793	26	Q2:	3	432
794	38	Q0:	0	613
795	40	Q2:	1
796	31	Q2:	2
797	28	Q2:	3	760
798	24	Q4:	1	673	184	489
799	21	Q3:	1	451	666	146	719
800	32	Q1:	3	290	104
801	30	Q2:	2	28
802	15	Q2:	0	219	16	262
803	9	Q0:	3	678	18	5	535
804	13	Q3:	0	684
805	10	Q2:	0	137
806	10	Q3:	0	34	345
807	24	Q1:	3	110	435
808	23	Q0:	0	273	686
809	31	Q1:	0	668
810	32	Q1:	0
811	28	Q2:	1
812	23	Q4:	3	738	66
813	33	Q2:	0	137
814	37	Q2:	2	507
815	33	Q3:	1	5
816	16	Q3:	0	597	60
817	26	Q3:	3	329	724
818	34	Q3:	0
819	34	Q3:	3	346
820	18	Q3:	3	682
821	24	Q2:	0	597
822	34	Q1:	2	332
823	11	Q1:	2	314
824	20	Q4:	2	790
825	24	Q3:	2	792	323	336
826	37	Q3:	2	690
827	32	Q4:	0	717	33
828	29	Q0:	3	134	649
829	12	Q1:	2	716
830	40	Q0:	3	303	224	796
831	37	Q2:	0
832	17	Q0:	2	626	364
833	9	Q4:	3	172	392
834	30	Q2:	3	220	262	163
835	38	Q4:	0
836	12	Q1:	2	593	812	198	758
837	24	Q2:	1	127	185	822	176
838	18	Q3:	0	817	380	42
839	29	Q4:	0
840	23	Q4:	0	242	550
841	13	Q1:	2	456	473	612
842	13	Q1:	3	606
843	33	Q0:	0	18
844	34	Q1:	2	493	262	532	183
845	26	Q3:	1
846	30	Q4:	0
847	37	Q2:	2	541
848	23	Q1:	0	204	308
849	14	Q1:	2	249
850	14	Q2:	3	71	566	623
851	21	Q0:	3
852	21	Q2:	3	452
853	12	Q1:	1
854	24	Q1:	0	333	106
855	21	Q4:	1
856	17	Q1:	0	497
857	13	Q0:	1	222
858	29	Q0:	2	608
859	24	Q3:	3	192
860	29	Q3:	3
861	35	Q4:	2	59
862	25	Q3:	3	211
863	9	Q1:	0	89	477	822	326
864	20	Q2:	1
865	13	Q3:	0	612	294	169	693	712
866	16	Q4:	2	126	247	781
867	17	Q2:	0
868	33	Q3:	2	179	863	557	378
869	12	Q1:	0	141	289	401
870	13	Q0:	0	95	199	749
871	39	Q2:	2	501
872	38	Q4:	0	258	31
873	37	Q3:	3	766	699	345
874	14	Q2:	3	279
875	36	Q1:	3	871	38
876	20	Q0:	2	293	128	28
877	16	Q0:	0	381
878	27	Q3:	2
879	38	Q3:	3	395
880	33	Q0:	3	318	638	472
881	10	Q0:	2	877	581
882	30	Q1:	2	238	632	823
883	17	Q4:	1
884	25	Q3:	1	692	430	854
885	25	Q3:	0	741	695
886	33	Q3:	2	100	575	124
887	9	Q4:	2	176	853	750	39
888	20	Q2:	2	124
889	24	Q3:	1	654	627	533
890	12	Q3:	1	81
891	39	Q3:	3	679
892	33	Q1:	1	741	299
893	26	Q3:	3	623	153	666	683
894	29	Q0:	2	741	643
895	21	Q2:	2	410	393	77	208
896	38	Q1:	3	865	416	716	56	433
897	23	Q4:	3	173	588	51
898	38	Q4:	3	270
899	14	Q2:	2	460	115
900	24	Q4:	3	836	316
901	39	Q0:	3	19	219	69	140	869
902	28	Q1:	2	388
903	18	Q3:	0	849	132
904	17	Q0:	0
905	15	Q0:	1	656	332	496	616	607	244
906	26	Q3:	0	637
907	14	Q4:	1	141
908	11	Q3:	2	713
909	13	Q4:	3
910	23	Q1:	1
911	30	Q3:	2	739	651	853
912	37	Q2:	3	119	362
913	30	Q4:	1	165	558
914	19	Q1:	1	232
915	14	Q4:	2	404
916	32	Q1:	2	835	442
917	25	Q0:	3	866
918	24	Q1:	0
919	33	Q3:	1	521	603
920	34	Q1:	2	4	721	639	739
921	11	Q0:	2	616	458	693
922	16	Q4:	2
923	14	Q4:	0	909	251	922
924	15	Q1:	1	723
925	33	Q1:	0
926	30	Q2:	1	175	599	441	55	6
927	13	Q2:	1	187	38
928	34	Q3:	2	195	906	783	630	334	65	612
929	31	Q4:	2	631
930	18	Q1:	2	184	730	889
931	11	Q0:	3	187
932	13	Q0:	2	166	99
933	13	Q0:	3	463	801
934	13	Q4:	2
935	12	Q4:	0	827	813
936	12	Q1:	0	322	625	542	142
937	21	Q2:	0	819	89	752	350
938	20	Q4:	0
939	23	Q2:	3	736
940	24	Q0:	1	909	188	670	39	830	288
941	17	Q3:	1
942	28	Q0:	2	44	774	400	829
943	32	Q1:	1	174	448	22
944	40	Q4:	1
945	39	Q3:	0
946	10	Q2:	0	17	724
947	23	Q1:	1
948	33	Q4:	1	741	704	155
949	27	Q0:	2
950	38	Q4:	3	878
951	25	Q2:	1	797	149	248	632
952	18	Q1:	3	275
953	10	Q1:	2	739	128
954	18	Q1:	0
955	27	Q3:	3	601
956	24	Q0:	2	336	424
957	36	Q3:	0	504
958	29	Q2:	0	182	108	529
959	28	Q3:	0	418	531	674
960	18	Q2:	3	680	535
961	19	Q4:	2	378	334
962	39	Q1:	2	736	81
963	22	Q3:	0	793
964	40	Q2:	2	560	108
965	9	Q1:	0	60	26	756
966	16	Q1:	0	295	17	100	949
967	23	Q2:	2	927	145	879	391
968	23	Q3:	1	263
969	11	Q0:	3	819	459
970	17	Q1:	1	548	733
971	9	Q0:	0	833	44
972	31	Q1:	2	140
973	30	Q0:	0	935
974	32	Q3:	0
975	26	Q3:	2	426	796	486	682	822
976	15	Q1:	2	349
977	27	Q1:	1	274	865
978	28	Q0:	1	490	17	671	946	701
979	29	Q2:	2	690	298
980	35	Q0:	0	85
981	12	Q2:	0	363
982	22	Q1:	2	347	138
983	15	Q0:	1	761	579
984	11	Q0:	0	442	326
985	30	Q3:	3	912
986	9	Q2:	1	756
987	29	Q1:	3
988	32	Q0:	0
989	23	Q2:	0
990	17	Q1:	2	192
991	28	Q1:	1
992	37	Q4:	1	847	116
993	32	Q2:	0	175
994	26	Q3:	2	562	919
995	40	Q0:	3	103	174	40
996	25	Q0:	0	330
997	34	Q4:	1	588	38	578	985
998	11	Q4:	0	617	147	168	99	652
999	9	Q1:	2	267	789	379	318	988
1000	29	Q4:	3	329	672	653
========================================================== 